NAME : tsp_159_sol.txt
COMMENT : OR-Tools Guided Local Search
TYPE : TOUR
DIMENSION : 50
COST : 5741
STATUS : ROUTING_SUCCESS
GAP : 0.00% (Reference Solution)
TOUR_SECTION
1
18
12
31
48
9
29
30
36
21
4
14
28
8
47
44
46
17
45
10
25
33
15
49
35
16
41
11
3
40
2
34
7
39
32
6
24
13
23
19
38
22
43
42
27
50
5
37
20
26
-1
